proyfinal/src/viki/013/andrea/andrea-localstore/experimentInOfficeAgust.take6/worker_5/03b7c283-6c54-4d92-8bee-74d6bd18e0c6.als.cnf.out
Reading from standard input... Use '--help' for help.
============================[ Problem Statistics ]=============================
|                                                                             |
|  Number of variables:         87638                                         |
|  Number of clauses:          161767                                         |
|  Parse time:                   0.03 s                                       |
|                                                                             |
============================[ Search Statistics ]==============================
| Conflicts |          ORIGINAL         |          LEARNT          | Progress |
|           |    Vars  Clauses Literals |    Limit  Clauses Lit/Cl |          |
===============================================================================
|       100 |   62274   104857   261964 |    38447      100     11 | 28.942 % |
|       250 |   62274   104857   261964 |    42292      250     21 | 28.942 % |
|       475 |   62274   104857   261964 |    46521      475     56 | 28.942 % |
|       812 |   62273   104813   261874 |    51173      811     77 | 28.943 % |
|      1318 |   62273   104813   261874 |    56291     1317     85 | 28.943 % |
|      2077 |   62273   104813   261874 |    61920     2076     86 | 28.943 % |
|      3216 |   62273   104813   261874 |    68112     3215     86 | 28.943 % |
|      4924 |   62253   104729   261681 |    74923     3891     92 | 28.966 % |
|      7486 |   49742    68833   173643 |    82415     6320    102 | 43.242 % |
|     11330 |   49268    66451   167957 |    90657     9319     79 | 43.782 % |
===============================================================================
restarts              : 62
conflicts             : 14613          (7437 /sec)
decisions             : 49811          (0.00 % random) (25349 /sec)
propagations          : 21609455       (10997089 /sec)
conflict literals     : 995269         (42.93 % deleted)
Memory used           : 30.14 MB
CPU time              : 1.96502 s

UNSATISFIABLE
